p cnf 15 22
-15 -12 10 0
-15 12 7 0
15 -12 3 0
-15 -10 -8 0
-15 -9 8 0
15 -8 -2 0
-15 4 2 0
-14 -13 -11 0
-14 -12 -8 0
14 11 -6 0
-13 6 4 0
12 3 2 0
-11 10 -9 0
-11 9 6 0
11 6 -2 0
-10 -9 -6 0
9 -7 4 0
-9 -7 3 0
-8 7 -6 0
8 5 3 0
-7 -6 3 0
-7 -5 4 0
